(set-logic BV) (define-fun parity ((a Bool) (b Bool) (c Bool) (d Bool)) Bool (xor (not (xor a b)) (not (xor c d)))) (synth-fun NAND ((a Bool) (b Bool) (c Bool) (d Bool)) Bool) (declare-var a Bool) (declare-var b Bool) (declare-var c Bool) (declare-var d Bool) (constraint (= (parity a b c d) (not (and (NAND a b c d) (not (and (not (and (not (and d (not (and d a)))) (not (and a (not (and d a)))))) (not (and (not (and (not (and true c)) (not (and true b)))) (not (and b c)))))))))) (check-synth)
